p cnf 409 16
-4 -12 -22 -23 -39 -40 -53 -54 -55 -84 -85 -86 -87 -95 -96 -98 -99 -111 -112 -117 -150 -151 -152 -153 -184 -185 -187 -188 -189 -190 -220 -221 -224 -226 -301 -302 -323 -324 -340 -341 -344 -345 -359 -360 -369 -387 -388 -407 -408 -417 -547 -548 -585 -586 -610 -611 -630 -635 -636 -669 -670 -711 -712 -736 -737 -751 -752 -757 -758 -767 -768 -770 -771 -783 -784 -793 -794 -806 -807 -883 -884 -916 -917 -935 -936 -957 -958 -984 -985 -1026 -1027 -1028 -1052 -1053 -1056 -1057 -1103 -1104 -1130 -1131 -1159 -1160 -1175 -1176 -1180 -1194 -1195 -1224 -1225 -1243 -1244 -1290 -1291 -1338 -1339 -1358 -1359 -1403 -1404 -1413 -1414 -1416 -1417 -1420 -1421 -1431 -1432 -1438 -1439 -1460 -1461 -1479 -1480 -1482 -1483 -1491 -1492 -1507 -1508 -1525 -1541 -1542 -1554 -1555 -1578 -1579 -1605 -1606 -1621 -1636 -1637 -1644 -1645 -1670 -1671 -1672 -1673 -1680 -1681 -1712 -1713 -1720 -1721 -1728 -1729 -1736 -1737 -1775 -1776 -1782 -1785 -1786 -1802 -1803 -1831 -1832 -1861 -1862 -1874 -1875 -1877 -1878 -1882 -1883 -1890 -1891 -1920 -1921 -1936 -1937 -1957 -1958 -1964 -1965 -2055 -2056 -2074 -2075 -2097 -2098 -2109 -2110 -2111 -2112 -2120 -2168 -2169 -2174 -2175 -2181 -2192 -2193 -2202 -2203 -2204 -2205 -2219 -2220 -2257 -2258 -2260 -2261 -2291 -2292 -2315 -2343 -2344 -2380 -2381 -2399 -2400 -2401 -2402 -2423 -2424 -2428 -2429 -2457 -2479 -2480 -2485 -2487 -2509 -2510 -2517 -2554 -2555 -2571 -2572 -2608 -2609 -2631 -2632 -2643 -2644 -2646 -2647 -2653 -2654 -2659 -2660 -2705 -2708 -2709 -2718 -2719 -2772 -2773 -2779 -2780 -2781 -2782 -2809 -2810 -2867 -2876 -2934 -2935 -2951 -2952 -2956 -2957 -2988 -2989 -3001 -3002 -3057 -3058 -3060 -3090 -3103 -3105 -3107 -3152 -3153 -3156 -3157 -3158 -3159 -3168 -3169 -3185 -3186 -3190 -3191 -3193 -3194 -3196 -3197 -3212 -3213 -3240 -3241 -3243 -3244 -3253 -3254 -3255 -3256 -3348 -3349 -3362 -3363 -3367 -3368 -3380 -3381 -3390 -3391 -3426 -3427 -3436 -3437 -3517 -3540 -3541 -3543 -3544 -3545 -3546 -3560 -3561 -3565 -3566 -3570 -3571 -3590 -3591 -3592 -3593 -3608 -3609 -3617 -3618 -3632 -3633 -3637 -3638 -3640 -3652 -3653 -3661 -3662 -3688 -3689 -3694 -3708 -3709 -3726 -3734 -3735 -3746 -3753 -3754 -3768 -3803 -3817 -3818 -3857 -3858 -3860 -3861 -3862 -3863 -3871 -3872 -3969 -3970 -4050 -4051 -4081 -4082 -4133 -4134 -4135 -4148 -4149 -4156 -4157 -4204 -4205 -4263 -4264 -4282 0
-4 -12 -22 -23 -39 -40 -53 -54 -55 -84 -85 -86 -87 -95 -96 -98 -99 -111 -112 -117 -150 -151 -152 -153 -184 -185 -187 -188 -189 -190 -220 -221 -224 -226 -301 -302 -323 -324 -340 -341 -344 -345 -359 -360 -369 -387 -388 -407 -408 -417 -547 -548 -585 -586 -610 -611 -630 -635 -636 -669 -670 -711 -712 -736 -737 -751 -752 -757 -758 -767 -768 -770 -771 -783 -784 -793 -794 -806 -807 -883 -884 -916 -917 -935 -936 -957 -958 -984 -985 -1026 -1027 -1028 -1052 -1053 -1056 -1057 -1103 -1104 -1130 -1131 -1159 -1160 -1175 -1176 -1180 -1194 -1195 -1224 -1225 -1243 -1244 -1290 -1291 -1338 -1339 -1358 -1359 -1403 -1404 -1413 -1415 -1416 -1417 -1420 -1421 -1431 -1432 -1438 -1439 -1460 -1461 -1479 -1480 -1482 -1483 -1491 -1492 -1507 -1508 -1525 -1541 -1542 -1554 -1555 -1578 -1579 -1605 -1606 -1621 -1636 -1637 -1644 -1645 -1670 -1671 -1672 -1673 -1680 -1681 -1712 -1713 -1720 -1721 -1728 -1729 -1736 -1737 -1775 -1776 -1782 -1785 -1786 -1802 -1803 -1831 -1832 -1861 -1862 -1874 -1875 -1877 -1878 -1882 -1883 -1890 -1891 -1920 -1921 -1936 -1937 -1957 -1958 -1964 -1965 -2055 -2056 -2074 -2075 -2097 -2098 -2109 -2110 -2111 -2112 -2120 -2168 -2169 -2174 -2175 -2181 -2192 -2193 -2202 -2203 -2204 -2205 -2219 -2220 -2257 -2258 -2260 -2261 -2291 -2292 -2315 -2343 -2344 -2380 -2381 -2399 -2400 -2401 -2402 -2423 -2424 -2428 -2429 -2457 -2479 -2480 -2485 -2487 -2509 -2510 -2517 -2554 -2555 -2571 -2572 -2608 -2609 -2631 -2632 -2643 -2644 -2646 -2647 -2653 -2654 -2659 -2660 -2705 -2708 -2709 -2718 -2719 -2772 -2773 -2779 -2780 -2781 -2782 -2809 -2810 -2867 -2876 -2934 -2935 -2951 -2952 -2956 -2957 -2988 -2989 -3001 -3002 -3057 -3058 -3060 -3090 -3103 -3105 -3107 -3152 -3153 -3156 -3157 -3158 -3159 -3168 -3169 -3185 -3186 -3190 -3191 -3193 -3194 -3196 -3197 -3212 -3213 -3240 -3241 -3243 -3244 -3253 -3254 -3255 -3256 -3348 -3349 -3362 -3363 -3367 -3368 -3380 -3381 -3390 -3391 -3426 -3427 -3436 -3437 -3517 -3540 -3541 -3543 -3544 -3545 -3546 -3560 -3561 -3565 -3566 -3570 -3571 -3590 -3591 -3592 -3593 -3608 -3609 -3617 -3618 -3632 -3633 -3637 -3638 -3640 -3652 -3653 -3661 -3662 -3688 -3689 -3694 -3708 -3709 -3726 -3734 -3735 -3746 -3753 -3754 -3768 -3803 -3817 -3818 -3857 -3858 -3860 -3861 -3862 -3863 -3871 -3872 -3969 -3970 -4050 -4051 -4081 -4082 -4133 -4134 -4135 -4148 -4149 -4156 -4157 -4204 -4205 -4263 -4264 -4282 0
-4 -12 -22 -23 -39 -40 -53 -54 -55 -84 -85 -86 -87 -95 -96 -98 -99 -111 -112 -117 -150 -151 -152 -153 -184 -185 -187 -188 -189 -190 -220 -221 -224 -226 -301 -302 -323 -324 -340 -341 -344 -345 -359 -360 -369 -387 -388 -407 -408 -417 -547 -548 -585 -586 -610 -611 -630 -635 -636 -669 -670 -711 -712 -736 -737 -751 -752 -757 -758 -767 -768 -770 -771 -783 -784 -793 -794 -806 -807 -883 -884 -916 -917 -935 -936 -957 -958 -984 -985 -1026 -1027 -1028 -1052 -1053 -1056 -1057 -1103 -1104 -1130 -1131 -1159 -1160 -1175 -1176 -1180 -1194 -1195 -1224 -1225 -1243 -1244 -1290 -1291 -1338 -1339 -1358 -1359 -1403 -1404 -1413 -1415 -1416 -1417 -1420 -1421 -1431 -1432 -1438 -1439 -1460 -1461 -1479 -1480 -1482 -1483 -1491 -1492 -1507 -1509 -1525 -1541 -1542 -1554 -1555 -1578 -1579 -1605 -1606 -1621 -1636 -1637 -1644 -1645 -1670 -1671 -1672 -1673 -1680 -1681 -1712 -1713 -1720 -1721 -1728 -1729 -1736 -1737 -1775 -1776 -1782 -1785 -1786 -1802 -1803 -1831 -1832 -1861 -1862 -1874 -1875 -1877 -1878 -1882 -1883 -1890 -1891 -1920 -1921 -1936 -1937 -1957 -1958 -1964 -1965 -2055 -2056 -2074 -2075 -2097 -2098 -2109 -2110 -2111 -2112 -2120 -2168 -2169 -2174 -2175 -2181 -2192 -2193 -2202 -2203 -2204 -2205 -2219 -2220 -2257 -2258 -2260 -2261 -2291 -2292 -2315 -2343 -2344 -2380 -2381 -2399 -2400 -2401 -2402 -2423 -2424 -2428 -2429 -2457 -2479 -2480 -2485 -2487 -2509 -2510 -2517 -2554 -2555 -2571 -2572 -2608 -2609 -2631 -2632 -2643 -2644 -2646 -2647 -2653 -2654 -2659 -2660 -2705 -2708 -2709 -2718 -2719 -2772 -2773 -2779 -2780 -2781 -2782 -2809 -2810 -2867 -2876 -2934 -2935 -2951 -2952 -2956 -2957 -2988 -2989 -3001 -3002 -3057 -3058 -3060 -3090 -3103 -3105 -3107 -3152 -3153 -3156 -3157 -3158 -3159 -3168 -3169 -3185 -3186 -3190 -3191 -3193 -3194 -3196 -3197 -3212 -3213 -3240 -3241 -3243 -3244 -3253 -3254 -3255 -3256 -3348 -3349 -3362 -3363 -3367 -3368 -3380 -3381 -3390 -3391 -3426 -3427 -3436 -3437 -3517 -3540 -3541 -3543 -3544 -3545 -3546 -3560 -3561 -3565 -3566 -3570 -3571 -3590 -3591 -3592 -3593 -3608 -3609 -3617 -3618 -3632 -3633 -3637 -3638 -3640 -3652 -3653 -3661 -3662 -3688 -3689 -3694 -3708 -3709 -3726 -3734 -3735 -3746 -3753 -3754 -3768 -3803 -3817 -3818 -3857 -3858 -3860 -3861 -3862 -3863 -3871 -3872 -3969 -3970 -4050 -4051 -4081 -4082 -4133 -4134 -4135 -4148 -4149 -4156 -4157 -4204 -4205 -4263 -4264 -4282 0
-4 -12 -22 -23 -39 -40 -53 -54 -55 -84 -85 -86 -87 -96 -97 -98 -99 -111 -112 -117 -150 -151 -152 -153 -184 -185 -187 -188 -189 -190 -220 -221 -224 -226 -301 -302 -323 -324 -340 -341 -344 -345 -359 -360 -369 -387 -388 -407 -408 -417 -547 -548 -585 -586 -610 -611 -630 -635 -636 -669 -670 -711 -712 -736 -737 -751 -752 -757 -758 -767 -768 -770 -771 -783 -784 -793 -794 -806 -807 -883 -884 -916 -917 -935 -936 -957 -958 -984 -985 -1026 -1027 -1028 -1052 -1053 -1056 -1057 -1103 -1104 -1130 -1131 -1159 -1160 -1175 -1176 -1180 -1194 -1195 -1224 -1225 -1243 -1244 -1290 -1291 -1338 -1339 -1358 -1359 -1403 -1404 -1413 -1415 -1416 -1417 -1420 -1421 -1431 -1432 -1438 -1439 -1460 -1461 -1479 -1480 -1482 -1483 -1491 -1492 -1507 -1509 -1525 -1541 -1542 -1554 -1555 -1578 -1579 -1605 -1606 -1621 -1636 -1637 -1644 -1645 -1670 -1671 -1672 -1673 -1680 -1681 -1712 -1713 -1720 -1721 -1728 -1729 -1736 -1737 -1775 -1776 -1782 -1785 -1786 -1802 -1803 -1831 -1832 -1861 -1862 -1874 -1875 -1877 -1878 -1882 -1883 -1890 -1891 -1920 -1921 -1936 -1937 -1957 -1958 -1964 -1965 -2055 -2056 -2074 -2075 -2097 -2098 -2109 -2110 -2111 -2112 -2120 -2168 -2169 -2174 -2175 -2181 -2192 -2193 -2202 -2203 -2204 -2205 -2219 -2220 -2257 -2258 -2260 -2261 -2291 -2292 -2315 -2343 -2344 -2380 -2381 -2399 -2400 -2401 -2402 -2423 -2424 -2428 -2429 -2457 -2479 -2480 -2485 -2487 -2509 -2510 -2517 -2554 -2555 -2571 -2572 -2608 -2609 -2631 -2632 -2643 -2644 -2646 -2647 -2653 -2654 -2659 -2660 -2705 -2708 -2709 -2718 -2719 -2772 -2773 -2779 -2780 -2781 -2782 -2809 -2810 -2867 -2876 -2934 -2935 -2951 -2952 -2956 -2957 -2988 -2989 -3001 -3002 -3057 -3058 -3060 -3090 -3103 -3105 -3107 -3152 -3153 -3156 -3157 -3158 -3159 -3168 -3169 -3185 -3186 -3190 -3191 -3193 -3194 -3196 -3197 -3212 -3213 -3240 -3241 -3243 -3244 -3253 -3254 -3255 -3256 -3348 -3349 -3362 -3363 -3367 -3368 -3380 -3381 -3390 -3391 -3426 -3427 -3436 -3437 -3517 -3540 -3541 -3543 -3544 -3545 -3546 -3560 -3561 -3565 -3566 -3570 -3571 -3590 -3591 -3592 -3593 -3608 -3609 -3617 -3618 -3632 -3633 -3637 -3638 -3640 -3652 -3653 -3661 -3662 -3688 -3689 -3694 -3708 -3709 -3726 -3735 -3736 -3746 -3753 -3754 -3768 -3803 -3817 -3818 -3857 -3858 -3860 -3861 -3862 -3863 -3871 -3872 -3969 -3970 -4050 -4051 -4081 -4082 -4133 -4134 -4135 -4148 -4149 -4156 -4157 -4204 -4205 -4263 -4264 -4282 0
-4 -12 -22 -23 -39 -40 -53 -54 -55 -84 -85 -86 -87 -96 -97 -98 -99 -111 -112 -117 -150 -151 -152 -153 -184 -185 -187 -188 -189 -190 -220 -221 -224 -226 -301 -302 -323 -324 -340 -341 -344 -345 -359 -360 -369 -387 -388 -407 -408 -417 -547 -548 -585 -586 -610 -611 -630 -635 -636 -669 -670 -711 -712 -736 -737 -751 -752 -757 -758 -767 -768 -770 -771 -783 -784 -793 -794 -806 -807 -883 -884 -916 -917 -935 -936 -957 -958 -984 -985 -1026 -1027 -1028 -1052 -1053 -1056 -1057 -1103 -1104 -1130 -1131 -1159 -1160 -1175 -1176 -1180 -1194 -1195 -1224 -1225 -1243 -1244 -1290 -1291 -1338 -1339 -1358 -1359 -1403 -1404 -1413 -1415 -1416 -1417 -1420 -1421 -1431 -1432 -1438 -1439 -1460 -1461 -1479 -1480 -1482 -1483 -1491 -1492 -1507 -1508 -1525 -1541 -1542 -1554 -1555 -1578 -1579 -1605 -1606 -1621 -1636 -1637 -1644 -1645 -1670 -1671 -1672 -1673 -1680 -1681 -1712 -1713 -1720 -1721 -1728 -1729 -1736 -1737 -1775 -1776 -1782 -1785 -1786 -1802 -1803 -1831 -1832 -1861 -1862 -1874 -1875 -1877 -1878 -1882 -1883 -1890 -1891 -1920 -1921 -1936 -1937 -1957 -1958 -1964 -1965 -2055 -2056 -2074 -2075 -2097 -2098 -2109 -2110 -2111 -2112 -2120 -2168 -2169 -2174 -2175 -2181 -2192 -2193 -2202 -2203 -2204 -2205 -2219 -2220 -2257 -2258 -2260 -2261 -2291 -2292 -2315 -2343 -2344 -2380 -2381 -2399 -2400 -2401 -2402 -2423 -2424 -2428 -2429 -2457 -2479 -2480 -2485 -2487 -2509 -2510 -2517 -2554 -2555 -2571 -2572 -2608 -2609 -2631 -2632 -2643 -2644 -2646 -2647 -2653 -2654 -2659 -2660 -2705 -2708 -2709 -2718 -2719 -2772 -2773 -2779 -2780 -2781 -2782 -2809 -2810 -2867 -2876 -2934 -2935 -2951 -2952 -2956 -2957 -2988 -2989 -3001 -3002 -3057 -3058 -3060 -3090 -3103 -3105 -3107 -3152 -3153 -3156 -3157 -3158 -3159 -3168 -3169 -3185 -3186 -3190 -3191 -3193 -3194 -3196 -3197 -3212 -3213 -3240 -3241 -3243 -3244 -3253 -3254 -3255 -3256 -3348 -3349 -3362 -3363 -3367 -3368 -3380 -3381 -3390 -3391 -3426 -3427 -3436 -3437 -3517 -3540 -3541 -3543 -3544 -3545 -3546 -3560 -3561 -3565 -3566 -3570 -3571 -3590 -3591 -3592 -3593 -3608 -3609 -3617 -3618 -3632 -3633 -3637 -3638 -3640 -3652 -3653 -3661 -3662 -3688 -3689 -3694 -3708 -3709 -3726 -3735 -3736 -3746 -3753 -3754 -3768 -3803 -3817 -3818 -3857 -3858 -3860 -3861 -3862 -3863 -3871 -3872 -3969 -3970 -4050 -4051 -4081 -4082 -4133 -4134 -4135 -4148 -4149 -4156 -4157 -4204 -4205 -4263 -4264 -4282 0
-4 -12 -22 -23 -39 -40 -53 -54 -55 -84 -85 -86 -87 -96 -97 -98 -99 -111 -112 -117 -150 -151 -152 -153 -184 -185 -187 -188 -189 -190 -220 -221 -224 -226 -301 -302 -323 -324 -340 -341 -344 -345 -359 -360 -369 -387 -388 -407 -408 -417 -547 -548 -585 -586 -610 -611 -630 -635 -636 -669 -670 -711 -712 -736 -737 -751 -752 -757 -758 -767 -768 -770 -771 -783 -784 -793 -794 -806 -807 -883 -884 -916 -917 -935 -936 -957 -958 -984 -985 -1026 -1027 -1028 -1052 -1053 -1056 -1057 -1103 -1104 -1130 -1131 -1159 -1160 -1175 -1176 -1180 -1194 -1195 -1224 -1225 -1243 -1244 -1290 -1291 -1338 -1339 -1358 -1359 -1403 -1404 -1413 -1415 -1416 -1417 -1420 -1421 -1431 -1432 -1438 -1439 -1460 -1461 -1479 -1480 -1482 -1483 -1491 -1492 -1507 -1508 -1525 -1541 -1542 -1554 -1555 -1578 -1579 -1605 -1606 -1621 -1636 -1637 -1644 -1645 -1670 -1671 -1672 -1673 -1680 -1681 -1712 -1713 -1720 -1721 -1728 -1729 -1736 -1737 -1775 -1776 -1782 -1785 -1786 -1802 -1803 -1831 -1832 -1861 -1862 -1874 -1875 -1877 -1878 -1882 -1883 -1890 -1891 -1920 -1921 -1936 -1937 -1957 -1958 -1964 -1965 -2055 -2056 -2074 -2075 -2097 -2098 -2109 -2110 -2111 -2112 -2120 -2168 -2169 -2174 -2175 -2181 -2192 -2193 -2202 -2203 -2204 -2205 -2219 -2220 -2257 -2258 -2260 -2261 -2291 -2292 -2315 -2343 -2344 -2380 -2381 -2399 -2400 -2401 -2402 -2423 -2424 -2428 -2429 -2457 -2479 -2480 -2485 -2487 -2509 -2510 -2517 -2554 -2555 -2571 -2572 -2608 -2609 -2631 -2632 -2643 -2644 -2646 -2647 -2653 -2654 -2659 -2660 -2705 -2708 -2709 -2718 -2719 -2772 -2773 -2779 -2780 -2781 -2782 -2809 -2810 -2867 -2876 -2934 -2935 -2951 -2952 -2956 -2957 -2988 -2989 -3001 -3002 -3057 -3058 -3060 -3090 -3103 -3105 -3107 -3152 -3153 -3156 -3157 -3158 -3159 -3168 -3169 -3185 -3186 -3190 -3191 -3193 -3194 -3196 -3197 -3212 -3213 -3240 -3241 -3243 -3244 -3253 -3254 -3255 -3256 -3348 -3349 -3362 -3363 -3367 -3368 -3380 -3381 -3390 -3391 -3426 -3427 -3436 -3437 -3517 -3540 -3541 -3543 -3544 -3545 -3547 -3560 -3561 -3565 -3566 -3570 -3571 -3590 -3591 -3592 -3593 -3608 -3609 -3617 -3618 -3632 -3633 -3637 -3638 -3640 -3652 -3653 -3661 -3662 -3688 -3689 -3694 -3708 -3709 -3726 -3735 -3736 -3746 -3753 -3754 -3768 -3803 -3817 -3818 -3857 -3858 -3860 -3861 -3862 -3863 -3871 -3872 -3969 -3970 -4050 -4051 -4081 -4082 -4133 -4134 -4135 -4148 -4149 -4156 -4157 -4204 -4205 -4263 -4264 -4282 0
-4 -12 -22 -23 -39 -40 -53 -54 -55 -84 -85 -86 -87 -96 -97 -98 -99 -111 -112 -117 -150 -151 -152 -153 -184 -185 -187 -188 -189 -190 -220 -221 -224 -226 -301 -302 -323 -324 -340 -341 -344 -345 -359 -360 -369 -387 -388 -407 -408 -417 -547 -548 -585 -586 -610 -611 -630 -635 -636 -669 -670 -711 -712 -736 -737 -751 -752 -757 -758 -767 -768 -770 -771 -783 -784 -793 -794 -806 -807 -883 -884 -916 -917 -935 -936 -957 -958 -984 -985 -1026 -1027 -1028 -1052 -1053 -1056 -1057 -1103 -1104 -1130 -1131 -1159 -1160 -1175 -1176 -1180 -1194 -1195 -1224 -1225 -1243 -1244 -1290 -1291 -1338 -1339 -1358 -1359 -1403 -1404 -1413 -1415 -1416 -1417 -1420 -1421 -1431 -1432 -1438 -1439 -1460 -1461 -1479 -1480 -1482 -1483 -1491 -1492 -1507 -1509 -1525 -1541 -1542 -1554 -1555 -1578 -1579 -1605 -1606 -1621 -1636 -1637 -1644 -1645 -1670 -1671 -1672 -1673 -1680 -1681 -1712 -1713 -1720 -1721 -1728 -1729 -1736 -1737 -1775 -1776 -1782 -1785 -1786 -1802 -1803 -1831 -1832 -1861 -1862 -1874 -1875 -1877 -1878 -1882 -1883 -1890 -1891 -1920 -1921 -1936 -1937 -1957 -1958 -1964 -1965 -2055 -2056 -2074 -2075 -2097 -2098 -2109 -2110 -2111 -2112 -2120 -2168 -2169 -2174 -2175 -2181 -2192 -2193 -2202 -2203 -2204 -2205 -2219 -2220 -2257 -2258 -2260 -2261 -2291 -2292 -2315 -2343 -2344 -2380 -2381 -2399 -2400 -2401 -2402 -2423 -2424 -2428 -2429 -2457 -2479 -2480 -2485 -2487 -2509 -2510 -2517 -2554 -2555 -2571 -2572 -2608 -2609 -2631 -2632 -2643 -2644 -2646 -2647 -2653 -2654 -2659 -2660 -2705 -2708 -2709 -2718 -2719 -2772 -2773 -2779 -2780 -2781 -2782 -2809 -2810 -2867 -2876 -2934 -2935 -2951 -2952 -2956 -2957 -2988 -2989 -3001 -3002 -3057 -3058 -3060 -3090 -3103 -3105 -3107 -3152 -3153 -3156 -3157 -3158 -3159 -3168 -3169 -3185 -3186 -3190 -3191 -3193 -3194 -3196 -3197 -3212 -3213 -3240 -3241 -3243 -3244 -3253 -3254 -3255 -3256 -3348 -3349 -3362 -3363 -3367 -3368 -3380 -3381 -3390 -3391 -3426 -3427 -3436 -3437 -3517 -3540 -3541 -3543 -3544 -3545 -3547 -3560 -3561 -3565 -3566 -3570 -3571 -3590 -3591 -3592 -3593 -3608 -3609 -3617 -3618 -3632 -3633 -3637 -3638 -3640 -3652 -3653 -3661 -3662 -3688 -3689 -3694 -3708 -3709 -3726 -3735 -3736 -3746 -3753 -3754 -3768 -3803 -3817 -3818 -3857 -3858 -3860 -3861 -3862 -3863 -3871 -3872 -3969 -3970 -4050 -4051 -4081 -4082 -4133 -4134 -4135 -4148 -4149 -4156 -4157 -4204 -4205 -4263 -4264 -4282 0
-4 -12 -22 -23 -39 -40 -53 -54 -55 -84 -85 -86 -87 -95 -96 -98 -99 -111 -112 -117 -150 -151 -152 -153 -184 -185 -187 -188 -189 -190 -220 -221 -224 -226 -301 -302 -323 -324 -340 -341 -344 -345 -359 -360 -369 -387 -388 -407 -408 -417 -547 -548 -585 -586 -610 -611 -630 -635 -636 -669 -670 -711 -712 -736 -737 -751 -752 -757 -758 -767 -768 -770 -771 -783 -784 -793 -794 -806 -807 -883 -884 -916 -917 -935 -936 -957 -958 -984 -985 -1026 -1027 -1028 -1052 -1053 -1056 -1057 -1103 -1104 -1130 -1131 -1159 -1160 -1175 -1176 -1180 -1194 -1195 -1224 -1225 -1243 -1244 -1290 -1291 -1338 -1339 -1358 -1359 -1403 -1404 -1413 -1415 -1416 -1417 -1420 -1421 -1431 -1432 -1438 -1439 -1460 -1461 -1479 -1480 -1482 -1483 -1491 -1492 -1507 -1509 -1525 -1541 -1542 -1554 -1555 -1578 -1579 -1605 -1606 -1621 -1636 -1637 -1644 -1645 -1670 -1671 -1672 -1673 -1680 -1681 -1712 -1713 -1720 -1721 -1728 -1729 -1736 -1737 -1775 -1776 -1782 -1785 -1786 -1802 -1803 -1831 -1832 -1861 -1862 -1874 -1875 -1877 -1878 -1882 -1883 -1890 -1891 -1920 -1921 -1936 -1937 -1957 -1958 -1964 -1965 -2055 -2056 -2074 -2075 -2097 -2098 -2109 -2110 -2111 -2112 -2120 -2168 -2169 -2174 -2175 -2181 -2192 -2193 -2202 -2203 -2204 -2205 -2219 -2220 -2257 -2258 -2260 -2261 -2291 -2292 -2315 -2343 -2344 -2380 -2381 -2399 -2400 -2401 -2402 -2423 -2424 -2428 -2429 -2457 -2479 -2480 -2485 -2487 -2509 -2510 -2517 -2554 -2555 -2571 -2572 -2608 -2609 -2631 -2632 -2643 -2644 -2646 -2647 -2653 -2654 -2659 -2660 -2705 -2708 -2709 -2718 -2719 -2772 -2773 -2779 -2780 -2781 -2782 -2809 -2810 -2867 -2876 -2934 -2935 -2951 -2952 -2956 -2957 -2988 -2989 -3001 -3002 -3057 -3058 -3060 -3090 -3103 -3105 -3107 -3152 -3153 -3156 -3157 -3158 -3159 -3168 -3169 -3185 -3186 -3190 -3191 -3193 -3194 -3196 -3197 -3212 -3213 -3240 -3241 -3243 -3244 -3253 -3254 -3255 -3256 -3348 -3349 -3362 -3363 -3367 -3368 -3380 -3381 -3390 -3391 -3426 -3427 -3436 -3437 -3517 -3540 -3541 -3543 -3544 -3545 -3547 -3560 -3561 -3565 -3566 -3570 -3571 -3590 -3591 -3592 -3593 -3608 -3609 -3617 -3618 -3632 -3633 -3637 -3638 -3640 -3652 -3653 -3661 -3662 -3688 -3689 -3694 -3708 -3709 -3726 -3734 -3735 -3746 -3753 -3754 -3768 -3803 -3817 -3818 -3857 -3858 -3860 -3861 -3862 -3863 -3871 -3872 -3969 -3970 -4050 -4051 -4081 -4082 -4133 -4134 -4135 -4148 -4149 -4156 -4157 -4204 -4205 -4263 -4264 -4282 0
-4 -12 -22 -23 -39 -40 -53 -54 -55 -84 -85 -86 -87 -95 -96 -98 -99 -111 -112 -117 -150 -151 -152 -153 -184 -185 -187 -188 -189 -190 -220 -221 -224 -226 -301 -302 -323 -324 -340 -341 -344 -345 -359 -360 -369 -387 -388 -407 -408 -417 -547 -548 -585 -586 -610 -611 -630 -635 -636 -669 -670 -711 -712 -736 -737 -751 -752 -757 -758 -767 -768 -770 -771 -783 -784 -793 -794 -806 -807 -883 -884 -916 -917 -935 -936 -957 -958 -984 -985 -1026 -1027 -1028 -1052 -1053 -1056 -1057 -1103 -1104 -1130 -1131 -1159 -1160 -1175 -1176 -1180 -1194 -1195 -1224 -1225 -1243 -1244 -1290 -1291 -1338 -1339 -1358 -1359 -1403 -1404 -1413 -1414 -1416 -1417 -1420 -1421 -1431 -1432 -1438 -1439 -1460 -1461 -1479 -1480 -1482 -1483 -1491 -1492 -1507 -1509 -1525 -1541 -1542 -1554 -1555 -1578 -1579 -1605 -1606 -1621 -1636 -1637 -1644 -1645 -1670 -1671 -1672 -1673 -1680 -1681 -1712 -1713 -1720 -1721 -1728 -1729 -1736 -1737 -1775 -1776 -1782 -1785 -1786 -1802 -1803 -1831 -1832 -1861 -1862 -1874 -1875 -1877 -1878 -1882 -1883 -1890 -1891 -1920 -1921 -1936 -1937 -1957 -1958 -1964 -1965 -2055 -2056 -2074 -2075 -2097 -2098 -2109 -2110 -2111 -2112 -2120 -2168 -2169 -2174 -2175 -2181 -2192 -2193 -2202 -2203 -2204 -2205 -2219 -2220 -2257 -2258 -2260 -2261 -2291 -2292 -2315 -2343 -2344 -2380 -2381 -2399 -2400 -2401 -2402 -2423 -2424 -2428 -2429 -2457 -2479 -2480 -2485 -2487 -2509 -2510 -2517 -2554 -2555 -2571 -2572 -2608 -2609 -2631 -2632 -2643 -2644 -2646 -2647 -2653 -2654 -2659 -2660 -2705 -2708 -2709 -2718 -2719 -2772 -2773 -2779 -2780 -2781 -2782 -2809 -2810 -2867 -2876 -2934 -2935 -2951 -2952 -2956 -2957 -2988 -2989 -3001 -3002 -3057 -3058 -3060 -3090 -3103 -3105 -3107 -3152 -3153 -3156 -3157 -3158 -3159 -3168 -3169 -3185 -3186 -3190 -3191 -3193 -3194 -3196 -3197 -3212 -3213 -3240 -3241 -3243 -3244 -3253 -3254 -3255 -3256 -3348 -3349 -3362 -3363 -3367 -3368 -3380 -3381 -3390 -3391 -3426 -3427 -3436 -3437 -3517 -3540 -3541 -3543 -3544 -3545 -3547 -3560 -3561 -3565 -3566 -3570 -3571 -3590 -3591 -3592 -3593 -3608 -3609 -3617 -3618 -3632 -3633 -3637 -3638 -3640 -3652 -3653 -3661 -3662 -3688 -3689 -3694 -3708 -3709 -3726 -3734 -3735 -3746 -3753 -3754 -3768 -3803 -3817 -3818 -3857 -3858 -3860 -3861 -3862 -3863 -3871 -3872 -3969 -3970 -4050 -4051 -4081 -4082 -4133 -4134 -4135 -4148 -4149 -4156 -4157 -4204 -4205 -4263 -4264 -4282 0
-4 -12 -22 -23 -39 -40 -53 -54 -55 -84 -85 -86 -87 -95 -96 -98 -99 -111 -112 -117 -150 -151 -152 -153 -184 -185 -187 -188 -189 -190 -220 -221 -224 -226 -301 -302 -323 -324 -340 -341 -344 -345 -359 -360 -369 -387 -388 -407 -408 -417 -547 -548 -585 -586 -610 -611 -630 -635 -636 -669 -670 -711 -712 -736 -737 -751 -752 -757 -758 -767 -768 -770 -771 -783 -784 -793 -794 -806 -807 -883 -884 -916 -917 -935 -936 -957 -958 -984 -985 -1026 -1027 -1028 -1052 -1053 -1056 -1057 -1103 -1104 -1130 -1131 -1159 -1160 -1175 -1176 -1180 -1194 -1195 -1224 -1225 -1243 -1244 -1290 -1291 -1338 -1339 -1358 -1359 -1403 -1404 -1413 -1414 -1416 -1417 -1420 -1421 -1431 -1432 -1438 -1439 -1460 -1461 -1479 -1480 -1482 -1483 -1491 -1492 -1507 -1508 -1525 -1541 -1542 -1554 -1555 -1578 -1579 -1605 -1606 -1621 -1636 -1637 -1644 -1645 -1670 -1671 -1672 -1673 -1680 -1681 -1712 -1713 -1720 -1721 -1728 -1729 -1736 -1737 -1775 -1776 -1782 -1785 -1786 -1802 -1803 -1831 -1832 -1861 -1862 -1874 -1875 -1877 -1878 -1882 -1883 -1890 -1891 -1920 -1921 -1936 -1937 -1957 -1958 -1964 -1965 -2055 -2056 -2074 -2075 -2097 -2098 -2109 -2110 -2111 -2112 -2120 -2168 -2169 -2174 -2175 -2181 -2192 -2193 -2202 -2203 -2204 -2205 -2219 -2220 -2257 -2258 -2260 -2261 -2291 -2292 -2315 -2343 -2344 -2380 -2381 -2399 -2400 -2401 -2402 -2423 -2424 -2428 -2429 -2457 -2479 -2480 -2485 -2487 -2509 -2510 -2517 -2554 -2555 -2571 -2572 -2608 -2609 -2631 -2632 -2643 -2644 -2646 -2647 -2653 -2654 -2659 -2660 -2705 -2708 -2709 -2718 -2719 -2772 -2773 -2779 -2780 -2781 -2782 -2809 -2810 -2867 -2876 -2934 -2935 -2951 -2952 -2956 -2957 -2988 -2989 -3001 -3002 -3057 -3058 -3060 -3090 -3103 -3105 -3107 -3152 -3153 -3156 -3157 -3158 -3159 -3168 -3169 -3185 -3186 -3190 -3191 -3193 -3194 -3196 -3197 -3212 -3213 -3240 -3241 -3243 -3244 -3253 -3254 -3255 -3256 -3348 -3349 -3362 -3363 -3367 -3368 -3380 -3381 -3390 -3391 -3426 -3427 -3436 -3437 -3517 -3540 -3541 -3543 -3544 -3545 -3547 -3560 -3561 -3565 -3566 -3570 -3571 -3590 -3591 -3592 -3593 -3608 -3609 -3617 -3618 -3632 -3633 -3637 -3638 -3640 -3652 -3653 -3661 -3662 -3688 -3689 -3694 -3708 -3709 -3726 -3734 -3735 -3746 -3753 -3754 -3768 -3803 -3817 -3818 -3857 -3858 -3860 -3861 -3862 -3863 -3871 -3872 -3969 -3970 -4050 -4051 -4081 -4082 -4133 -4134 -4135 -4148 -4149 -4156 -4157 -4204 -4205 -4263 -4264 -4282 0
-4 -12 -22 -23 -39 -40 -53 -54 -55 -84 -85 -86 -87 -96 -97 -98 -99 -111 -112 -117 -150 -151 -152 -153 -184 -185 -187 -188 -189 -190 -220 -221 -224 -226 -301 -302 -323 -324 -340 -341 -344 -345 -359 -360 -369 -387 -388 -407 -408 -417 -547 -548 -585 -586 -610 -611 -630 -635 -636 -669 -670 -711 -712 -736 -737 -751 -752 -757 -758 -767 -768 -770 -771 -783 -784 -793 -794 -806 -807 -883 -884 -916 -917 -935 -936 -957 -958 -984 -985 -1026 -1027 -1028 -1052 -1053 -1056 -1057 -1103 -1104 -1130 -1131 -1159 -1160 -1175 -1176 -1180 -1194 -1195 -1224 -1225 -1243 -1244 -1290 -1291 -1338 -1339 -1358 -1359 -1403 -1404 -1413 -1414 -1416 -1417 -1420 -1421 -1431 -1432 -1438 -1439 -1460 -1461 -1479 -1480 -1482 -1483 -1491 -1492 -1507 -1508 -1525 -1541 -1542 -1554 -1555 -1578 -1579 -1605 -1606 -1621 -1636 -1637 -1644 -1645 -1670 -1671 -1672 -1673 -1680 -1681 -1712 -1713 -1720 -1721 -1728 -1729 -1736 -1737 -1775 -1776 -1782 -1785 -1786 -1802 -1803 -1831 -1832 -1861 -1862 -1874 -1875 -1877 -1878 -1882 -1883 -1890 -1891 -1920 -1921 -1936 -1937 -1957 -1958 -1964 -1965 -2055 -2056 -2074 -2075 -2097 -2098 -2109 -2110 -2111 -2112 -2120 -2168 -2169 -2174 -2175 -2181 -2192 -2193 -2202 -2203 -2204 -2205 -2219 -2220 -2257 -2258 -2260 -2261 -2291 -2292 -2315 -2343 -2344 -2380 -2381 -2399 -2400 -2401 -2402 -2423 -2424 -2428 -2429 -2457 -2479 -2480 -2485 -2487 -2509 -2510 -2517 -2554 -2555 -2571 -2572 -2608 -2609 -2631 -2632 -2643 -2644 -2646 -2647 -2653 -2654 -2659 -2660 -2705 -2708 -2709 -2718 -2719 -2772 -2773 -2779 -2780 -2781 -2782 -2809 -2810 -2867 -2876 -2934 -2935 -2951 -2952 -2956 -2957 -2988 -2989 -3001 -3002 -3057 -3058 -3060 -3090 -3103 -3105 -3107 -3152 -3153 -3156 -3157 -3158 -3159 -3168 -3169 -3185 -3186 -3190 -3191 -3193 -3194 -3196 -3197 -3212 -3213 -3240 -3241 -3243 -3244 -3253 -3254 -3255 -3256 -3348 -3349 -3362 -3363 -3367 -3368 -3380 -3381 -3390 -3391 -3426 -3427 -3436 -3437 -3517 -3540 -3541 -3543 -3544 -3545 -3547 -3560 -3561 -3565 -3566 -3570 -3571 -3590 -3591 -3592 -3593 -3608 -3609 -3617 -3618 -3632 -3633 -3637 -3638 -3640 -3652 -3653 -3661 -3662 -3688 -3689 -3694 -3708 -3709 -3726 -3735 -3736 -3746 -3753 -3754 -3768 -3803 -3817 -3818 -3857 -3858 -3860 -3861 -3862 -3863 -3871 -3872 -3969 -3970 -4050 -4051 -4081 -4082 -4133 -4134 -4135 -4148 -4149 -4156 -4157 -4204 -4205 -4263 -4264 -4282 0
-4 -12 -22 -23 -39 -40 -53 -54 -55 -84 -85 -86 -87 -96 -97 -98 -99 -111 -112 -117 -150 -151 -152 -153 -184 -185 -187 -188 -189 -190 -220 -221 -224 -226 -301 -302 -323 -324 -340 -341 -344 -345 -359 -360 -369 -387 -388 -407 -408 -417 -547 -548 -585 -586 -610 -611 -630 -635 -636 -669 -670 -711 -712 -736 -737 -751 -752 -757 -758 -767 -768 -770 -771 -783 -784 -793 -794 -806 -807 -883 -884 -916 -917 -935 -936 -957 -958 -984 -985 -1026 -1027 -1028 -1052 -1053 -1056 -1057 -1103 -1104 -1130 -1131 -1159 -1160 -1175 -1176 -1180 -1194 -1195 -1224 -1225 -1243 -1244 -1290 -1291 -1338 -1339 -1358 -1359 -1403 -1404 -1413 -1414 -1416 -1417 -1420 -1421 -1431 -1432 -1438 -1439 -1460 -1461 -1479 -1480 -1482 -1483 -1491 -1492 -1507 -1509 -1525 -1541 -1542 -1554 -1555 -1578 -1579 -1605 -1606 -1621 -1636 -1637 -1644 -1645 -1670 -1671 -1672 -1673 -1680 -1681 -1712 -1713 -1720 -1721 -1728 -1729 -1736 -1737 -1775 -1776 -1782 -1785 -1786 -1802 -1803 -1831 -1832 -1861 -1862 -1874 -1875 -1877 -1878 -1882 -1883 -1890 -1891 -1920 -1921 -1936 -1937 -1957 -1958 -1964 -1965 -2055 -2056 -2074 -2075 -2097 -2098 -2109 -2110 -2111 -2112 -2120 -2168 -2169 -2174 -2175 -2181 -2192 -2193 -2202 -2203 -2204 -2205 -2219 -2220 -2257 -2258 -2260 -2261 -2291 -2292 -2315 -2343 -2344 -2380 -2381 -2399 -2400 -2401 -2402 -2423 -2424 -2428 -2429 -2457 -2479 -2480 -2485 -2487 -2509 -2510 -2517 -2554 -2555 -2571 -2572 -2608 -2609 -2631 -2632 -2643 -2644 -2646 -2647 -2653 -2654 -2659 -2660 -2705 -2708 -2709 -2718 -2719 -2772 -2773 -2779 -2780 -2781 -2782 -2809 -2810 -2867 -2876 -2934 -2935 -2951 -2952 -2956 -2957 -2988 -2989 -3001 -3002 -3057 -3058 -3060 -3090 -3103 -3105 -3107 -3152 -3153 -3156 -3157 -3158 -3159 -3168 -3169 -3185 -3186 -3190 -3191 -3193 -3194 -3196 -3197 -3212 -3213 -3240 -3241 -3243 -3244 -3253 -3254 -3255 -3256 -3348 -3349 -3362 -3363 -3367 -3368 -3380 -3381 -3390 -3391 -3426 -3427 -3436 -3437 -3517 -3540 -3541 -3543 -3544 -3545 -3547 -3560 -3561 -3565 -3566 -3570 -3571 -3590 -3591 -3592 -3593 -3608 -3609 -3617 -3618 -3632 -3633 -3637 -3638 -3640 -3652 -3653 -3661 -3662 -3688 -3689 -3694 -3708 -3709 -3726 -3735 -3736 -3746 -3753 -3754 -3768 -3803 -3817 -3818 -3857 -3858 -3860 -3861 -3862 -3863 -3871 -3872 -3969 -3970 -4050 -4051 -4081 -4082 -4133 -4134 -4135 -4148 -4149 -4156 -4157 -4204 -4205 -4263 -4264 -4282 0
-4 -12 -22 -23 -39 -40 -53 -54 -55 -84 -85 -86 -87 -95 -96 -98 -99 -111 -112 -117 -150 -151 -152 -153 -184 -185 -187 -188 -189 -190 -220 -221 -224 -226 -301 -302 -323 -324 -340 -341 -344 -345 -359 -360 -369 -387 -388 -407 -408 -417 -547 -548 -585 -586 -610 -611 -630 -635 -636 -669 -670 -711 -712 -736 -737 -751 -752 -757 -758 -767 -768 -770 -771 -783 -784 -793 -794 -806 -807 -883 -884 -916 -917 -935 -936 -957 -958 -984 -985 -1026 -1027 -1028 -1052 -1053 -1056 -1057 -1103 -1104 -1130 -1131 -1159 -1160 -1175 -1176 -1180 -1194 -1195 -1224 -1225 -1243 -1244 -1290 -1291 -1338 -1339 -1358 -1359 -1403 -1404 -1413 -1415 -1416 -1417 -1420 -1421 -1431 -1432 -1438 -1439 -1460 -1461 -1479 -1480 -1482 -1483 -1491 -1492 -1507 -1508 -1525 -1541 -1542 -1554 -1555 -1578 -1579 -1605 -1606 -1621 -1636 -1637 -1644 -1645 -1670 -1671 -1672 -1673 -1680 -1681 -1712 -1713 -1720 -1721 -1728 -1729 -1736 -1737 -1775 -1776 -1782 -1785 -1786 -1802 -1803 -1831 -1832 -1861 -1862 -1874 -1875 -1877 -1878 -1882 -1883 -1890 -1891 -1920 -1921 -1936 -1937 -1957 -1958 -1964 -1965 -2055 -2056 -2074 -2075 -2097 -2098 -2109 -2110 -2111 -2112 -2120 -2168 -2169 -2174 -2175 -2181 -2192 -2193 -2202 -2203 -2204 -2205 -2219 -2220 -2257 -2258 -2260 -2261 -2291 -2292 -2315 -2343 -2344 -2380 -2381 -2399 -2400 -2401 -2402 -2423 -2424 -2428 -2429 -2457 -2479 -2480 -2485 -2487 -2509 -2510 -2517 -2554 -2555 -2571 -2572 -2608 -2609 -2631 -2632 -2643 -2644 -2646 -2647 -2653 -2654 -2659 -2660 -2705 -2708 -2709 -2718 -2719 -2772 -2773 -2779 -2780 -2781 -2782 -2809 -2810 -2867 -2876 -2934 -2935 -2951 -2952 -2956 -2957 -2988 -2989 -3001 -3002 -3057 -3058 -3060 -3090 -3103 -3105 -3107 -3152 -3153 -3156 -3157 -3158 -3159 -3168 -3169 -3185 -3186 -3190 -3191 -3193 -3194 -3196 -3197 -3212 -3213 -3240 -3241 -3243 -3244 -3253 -3254 -3255 -3256 -3348 -3349 -3362 -3363 -3367 -3368 -3380 -3381 -3390 -3391 -3426 -3427 -3436 -3437 -3517 -3540 -3541 -3543 -3544 -3545 -3547 -3560 -3561 -3565 -3566 -3570 -3571 -3590 -3591 -3592 -3593 -3608 -3609 -3617 -3618 -3632 -3633 -3637 -3638 -3640 -3652 -3653 -3661 -3662 -3688 -3689 -3694 -3708 -3709 -3726 -3734 -3735 -3746 -3753 -3754 -3768 -3803 -3817 -3818 -3857 -3858 -3860 -3861 -3862 -3863 -3871 -3872 -3969 -3970 -4050 -4051 -4081 -4082 -4133 -4134 -4135 -4148 -4149 -4156 -4157 -4204 -4205 -4263 -4264 -4282 0
-4 -12 -22 -23 -39 -40 -53 -54 -55 -84 -85 -86 -87 -95 -96 -98 -99 -111 -112 -117 -150 -151 -152 -153 -184 -185 -187 -188 -189 -190 -220 -221 -224 -226 -301 -302 -323 -324 -340 -341 -344 -345 -359 -360 -369 -387 -388 -407 -408 -417 -547 -548 -585 -586 -610 -611 -630 -635 -636 -669 -670 -711 -712 -736 -737 -751 -752 -757 -758 -767 -768 -770 -771 -783 -784 -793 -794 -806 -807 -883 -884 -916 -917 -935 -936 -957 -958 -984 -985 -1026 -1027 -1028 -1052 -1053 -1056 -1057 -1103 -1104 -1130 -1131 -1159 -1160 -1175 -1176 -1180 -1194 -1195 -1224 -1225 -1243 -1244 -1290 -1291 -1338 -1339 -1358 -1359 -1403 -1404 -1413 -1414 -1416 -1417 -1420 -1421 -1431 -1432 -1438 -1439 -1460 -1461 -1479 -1480 -1482 -1483 -1491 -1492 -1507 -1509 -1525 -1541 -1542 -1554 -1555 -1578 -1579 -1605 -1606 -1621 -1636 -1637 -1644 -1645 -1670 -1671 -1672 -1673 -1680 -1681 -1712 -1713 -1720 -1721 -1728 -1729 -1736 -1737 -1775 -1776 -1782 -1785 -1786 -1802 -1803 -1831 -1832 -1861 -1862 -1874 -1875 -1877 -1878 -1882 -1883 -1890 -1891 -1920 -1921 -1936 -1937 -1957 -1958 -1964 -1965 -2055 -2056 -2074 -2075 -2097 -2098 -2109 -2110 -2111 -2112 -2120 -2168 -2169 -2174 -2175 -2181 -2192 -2193 -2202 -2203 -2204 -2205 -2219 -2220 -2257 -2258 -2260 -2261 -2291 -2292 -2315 -2343 -2344 -2380 -2381 -2399 -2400 -2401 -2402 -2423 -2424 -2428 -2429 -2457 -2479 -2480 -2485 -2487 -2509 -2510 -2517 -2554 -2555 -2571 -2572 -2608 -2609 -2631 -2632 -2643 -2644 -2646 -2647 -2653 -2654 -2659 -2660 -2705 -2708 -2709 -2718 -2719 -2772 -2773 -2779 -2780 -2781 -2782 -2809 -2810 -2867 -2876 -2934 -2935 -2951 -2952 -2956 -2957 -2988 -2989 -3001 -3002 -3057 -3058 -3060 -3090 -3103 -3105 -3107 -3152 -3153 -3156 -3157 -3158 -3159 -3168 -3169 -3185 -3186 -3190 -3191 -3193 -3194 -3196 -3197 -3212 -3213 -3240 -3241 -3243 -3244 -3253 -3254 -3255 -3256 -3348 -3349 -3362 -3363 -3367 -3368 -3380 -3381 -3390 -3391 -3426 -3427 -3436 -3437 -3517 -3540 -3541 -3543 -3544 -3545 -3546 -3560 -3561 -3565 -3566 -3570 -3571 -3590 -3591 -3592 -3593 -3608 -3609 -3617 -3618 -3632 -3633 -3637 -3638 -3640 -3652 -3653 -3661 -3662 -3688 -3689 -3694 -3708 -3709 -3726 -3734 -3735 -3746 -3753 -3754 -3768 -3803 -3817 -3818 -3857 -3858 -3860 -3861 -3862 -3863 -3871 -3872 -3969 -3970 -4050 -4051 -4081 -4082 -4133 -4134 -4135 -4148 -4149 -4156 -4157 -4204 -4205 -4263 -4264 -4282 0
-4 -12 -22 -23 -39 -40 -53 -54 -55 -84 -85 -86 -87 -96 -97 -98 -99 -111 -112 -117 -150 -151 -152 -153 -184 -185 -187 -188 -189 -190 -220 -221 -224 -226 -301 -302 -323 -324 -340 -341 -344 -345 -359 -360 -369 -387 -388 -407 -408 -417 -547 -548 -585 -586 -610 -611 -630 -635 -636 -669 -670 -711 -712 -736 -737 -751 -752 -757 -758 -767 -768 -770 -771 -783 -784 -793 -794 -806 -807 -883 -884 -916 -917 -935 -936 -957 -958 -984 -985 -1026 -1027 -1028 -1052 -1053 -1056 -1057 -1103 -1104 -1130 -1131 -1159 -1160 -1175 -1176 -1180 -1194 -1195 -1224 -1225 -1243 -1244 -1290 -1291 -1338 -1339 -1358 -1359 -1403 -1404 -1413 -1414 -1416 -1417 -1420 -1421 -1431 -1432 -1438 -1439 -1460 -1461 -1479 -1480 -1482 -1483 -1491 -1492 -1507 -1509 -1525 -1541 -1542 -1554 -1555 -1578 -1579 -1605 -1606 -1621 -1636 -1637 -1644 -1645 -1670 -1671 -1672 -1673 -1680 -1681 -1712 -1713 -1720 -1721 -1728 -1729 -1736 -1737 -1775 -1776 -1782 -1785 -1786 -1802 -1803 -1831 -1832 -1861 -1862 -1874 -1875 -1877 -1878 -1882 -1883 -1890 -1891 -1920 -1921 -1936 -1937 -1957 -1958 -1964 -1965 -2055 -2056 -2074 -2075 -2097 -2098 -2109 -2110 -2111 -2112 -2120 -2168 -2169 -2174 -2175 -2181 -2192 -2193 -2202 -2203 -2204 -2205 -2219 -2220 -2257 -2258 -2260 -2261 -2291 -2292 -2315 -2343 -2344 -2380 -2381 -2399 -2400 -2401 -2402 -2423 -2424 -2428 -2429 -2457 -2479 -2480 -2485 -2487 -2509 -2510 -2517 -2554 -2555 -2571 -2572 -2608 -2609 -2631 -2632 -2643 -2644 -2646 -2647 -2653 -2654 -2659 -2660 -2705 -2708 -2709 -2718 -2719 -2772 -2773 -2779 -2780 -2781 -2782 -2809 -2810 -2867 -2876 -2934 -2935 -2951 -2952 -2956 -2957 -2988 -2989 -3001 -3002 -3057 -3058 -3060 -3090 -3103 -3105 -3107 -3152 -3153 -3156 -3157 -3158 -3159 -3168 -3169 -3185 -3186 -3190 -3191 -3193 -3194 -3196 -3197 -3212 -3213 -3240 -3241 -3243 -3244 -3253 -3254 -3255 -3256 -3348 -3349 -3362 -3363 -3367 -3368 -3380 -3381 -3390 -3391 -3426 -3427 -3436 -3437 -3517 -3540 -3541 -3543 -3544 -3545 -3546 -3560 -3561 -3565 -3566 -3570 -3571 -3590 -3591 -3592 -3593 -3608 -3609 -3617 -3618 -3632 -3633 -3637 -3638 -3640 -3652 -3653 -3661 -3662 -3688 -3689 -3694 -3708 -3709 -3726 -3735 -3736 -3746 -3753 -3754 -3768 -3803 -3817 -3818 -3857 -3858 -3860 -3861 -3862 -3863 -3871 -3872 -3969 -3970 -4050 -4051 -4081 -4082 -4133 -4134 -4135 -4148 -4149 -4156 -4157 -4204 -4205 -4263 -4264 -4282 0
-4 -12 -22 -23 -39 -40 -53 -54 -55 -84 -85 -86 -87 -96 -97 -98 -99 -111 -112 -117 -150 -151 -152 -153 -184 -185 -187 -188 -189 -190 -220 -221 -224 -226 -301 -302 -323 -324 -340 -341 -344 -345 -359 -360 -369 -387 -388 -407 -408 -417 -547 -548 -585 -586 -610 -611 -630 -635 -636 -669 -670 -711 -712 -736 -737 -751 -752 -757 -758 -767 -768 -770 -771 -783 -784 -793 -794 -806 -807 -883 -884 -916 -917 -935 -936 -957 -958 -984 -985 -1026 -1027 -1028 -1052 -1053 -1056 -1057 -1103 -1104 -1130 -1131 -1159 -1160 -1175 -1176 -1180 -1194 -1195 -1224 -1225 -1243 -1244 -1290 -1291 -1338 -1339 -1358 -1359 -1403 -1404 -1413 -1414 -1416 -1417 -1420 -1421 -1431 -1432 -1438 -1439 -1460 -1461 -1479 -1480 -1482 -1483 -1491 -1492 -1507 -1508 -1525 -1541 -1542 -1554 -1555 -1578 -1579 -1605 -1606 -1621 -1636 -1637 -1644 -1645 -1670 -1671 -1672 -1673 -1680 -1681 -1712 -1713 -1720 -1721 -1728 -1729 -1736 -1737 -1775 -1776 -1782 -1785 -1786 -1802 -1803 -1831 -1832 -1861 -1862 -1874 -1875 -1877 -1878 -1882 -1883 -1890 -1891 -1920 -1921 -1936 -1937 -1957 -1958 -1964 -1965 -2055 -2056 -2074 -2075 -2097 -2098 -2109 -2110 -2111 -2112 -2120 -2168 -2169 -2174 -2175 -2181 -2192 -2193 -2202 -2203 -2204 -2205 -2219 -2220 -2257 -2258 -2260 -2261 -2291 -2292 -2315 -2343 -2344 -2380 -2381 -2399 -2400 -2401 -2402 -2423 -2424 -2428 -2429 -2457 -2479 -2480 -2485 -2487 -2509 -2510 -2517 -2554 -2555 -2571 -2572 -2608 -2609 -2631 -2632 -2643 -2644 -2646 -2647 -2653 -2654 -2659 -2660 -2705 -2708 -2709 -2718 -2719 -2772 -2773 -2779 -2780 -2781 -2782 -2809 -2810 -2867 -2876 -2934 -2935 -2951 -2952 -2956 -2957 -2988 -2989 -3001 -3002 -3057 -3058 -3060 -3090 -3103 -3105 -3107 -3152 -3153 -3156 -3157 -3158 -3159 -3168 -3169 -3185 -3186 -3190 -3191 -3193 -3194 -3196 -3197 -3212 -3213 -3240 -3241 -3243 -3244 -3253 -3254 -3255 -3256 -3348 -3349 -3362 -3363 -3367 -3368 -3380 -3381 -3390 -3391 -3426 -3427 -3436 -3437 -3517 -3540 -3541 -3543 -3544 -3545 -3546 -3560 -3561 -3565 -3566 -3570 -3571 -3590 -3591 -3592 -3593 -3608 -3609 -3617 -3618 -3632 -3633 -3637 -3638 -3640 -3652 -3653 -3661 -3662 -3688 -3689 -3694 -3708 -3709 -3726 -3735 -3736 -3746 -3753 -3754 -3768 -3803 -3817 -3818 -3857 -3858 -3860 -3861 -3862 -3863 -3871 -3872 -3969 -3970 -4050 -4051 -4081 -4082 -4133 -4134 -4135 -4148 -4149 -4156 -4157 -4204 -4205 -4263 -4264 -4282 0
